Route 1: 5 136 59 68 47 88 80 99 32 7 103 54 111 115 44 9 73 61 112 2 108 6 87 42 18
Route 2: 66 90 46 62 65 45 91 29 92 86 50 52 89 100 21 53 60 51 10 131
Route 3: 137 116 117 79 3 94 125 71 41 72 110 37 17 33 8 98 121 20 13 119 129
Route 4: 69 85 128 14 127
Route 5: 28 16 64 11 114 130 77 4 95 76 27 113 141 142 70 132 43 30 40 81 120 23 123 38 78
Route 6: 26 36 63 105 133 24 15 22 124 107 39 104 93 109 118 135 106 139 35 122 31 49
Route 7: 55 134 19 75 12 101 82 48 97 34 126 83 138 143 56 140 96 58 25 102 67 74 84 57
Cost 18352.90
